Maximize
  0.00448466074578099 Z_189_0_0 + 0.00544735722320833 Z_189_0_1
   + 0.7949690307992862 Z_189_0_2 + 0.00826374490992796 Z_189_0_3
   + 0.00753950520879972 Z_358_0_0 + 0.0140030441355854 Z_358_0_1
   + 0.7135725801298508 Z_358_0_2 + 0.00791380434729395 Z_358_0_3
   + 0.0147898464196714 Z_142_0_0 + 0.00613614885705022 Z_142_0_1
   + 0.6718915866260939 Z_142_0_2 + 0.0237722117285758 Z_142_0_3
   + 0.00382364013516024 Z_438_0_0 + 0.00841356137275514 Z_438_0_1
   + 0.7623052133988524 Z_438_0_2 + 0.0295841405899748 Z_438_0_3
   + 8.138931170808217e-04 Z_31_0_0 + 0.0480024678507877 Z_31_0_1
   + 0.6702859964278484 Z_31_0_2 + 0.00776729274463048 Z_31_0_3
   + 0.0150860268267555 Z_664_0_0 + 0.00622145408493774 Z_664_0_1
   + 0.6742591137387076 Z_664_0_2 + 0.0221545319859809 Z_664_0_3
   + 0.00229284363662898 Z_313_0_0 + 0.00666096026933771 Z_313_0_1
   + 0.7933593124653346 Z_313_0_2 + 0.00323754971443974 Z_313_0_3
   + 0.0163460444173039 Z_147_0_0 + 0.00787860543192375 Z_147_0_1
   + 0.7946479948063753 Z_147_0_2 + 0.0372676946044095 Z_147_0_3 + [
   0.0079867674858223 Z_189_0_0 * Z_438_0_0 + 0.4 Z_189_0_0 * Z_664_0_0
   + 0.0079867674858223 Z_189_0_1 * Z_438_0_1 + 0.4 Z_189_0_1 * Z_664_0_1
   + 0.0079867674858223 Z_189_0_2 * Z_438_0_2 + 0.4 Z_189_0_2 * Z_664_0_2
   + 0.0079867674858223 Z_189_0_3 * Z_438_0_3 + 0.4 Z_189_0_3 * Z_664_0_3
   + 0.000429992 Z_142_0_0 * Z_313_0_0 + 6.67695e-07 Z_142_0_0 * Z_147_0_0
   + 0.000429992 Z_142_0_1 * Z_313_0_1 + 6.67695e-07 Z_142_0_1 * Z_147_0_1
   + 0.000429992 Z_142_0_2 * Z_313_0_2 + 6.67695e-07 Z_142_0_2 * Z_147_0_2
   + 0.000429992 Z_142_0_3 * Z_313_0_3 + 6.67695e-07 Z_142_0_3 * Z_147_0_3
   + 0.0079867674858223 Z_438_0_0 * Z_664_0_0
   + 0.0079867674858223 Z_438_0_1 * Z_664_0_1
   + 0.0079867674858223 Z_438_0_2 * Z_664_0_2
   + 0.0079867674858223 Z_438_0_3 * Z_664_0_3 ] / 2 
Subject To
 constraint1_1890: Z_189_0_0 + Z_189_0_1 + Z_189_0_2 + Z_189_0_3 <= 1
 constraint1_3580: Z_358_0_0 + Z_358_0_1 + Z_358_0_2 + Z_358_0_3 <= 1
 constraint1_1420: Z_142_0_0 + Z_142_0_1 + Z_142_0_2 + Z_142_0_3 <= 1
 constraint1_4380: Z_438_0_0 + Z_438_0_1 + Z_438_0_2 + Z_438_0_3 <= 1
 constraint1_310: Z_31_0_0 + Z_31_0_1 + Z_31_0_2 + Z_31_0_3 <= 1
 constraint1_6640: Z_664_0_0 + Z_664_0_1 + Z_664_0_2 + Z_664_0_3 <= 1
 constraint1_3130: Z_313_0_0 + Z_313_0_1 + Z_313_0_2 + Z_313_0_3 <= 1
 constraint1_1470: Z_147_0_0 + Z_147_0_1 + Z_147_0_2 + Z_147_0_3 <= 1
 constraint2_1890: Z_189_0_0 <= 1
 constraint2_1891: Z_189_0_1 <= 1
 constraint2_1892: Z_189_0_2 <= 1
 constraint2_1893: Z_189_0_3 <= 1
 constraint2_3580: Z_358_0_0 <= 1
 constraint2_3581: Z_358_0_1 <= 1
 constraint2_3582: Z_358_0_2 <= 1
 constraint2_3583: Z_358_0_3 <= 1
 constraint2_1420: Z_142_0_0 <= 1
 constraint2_1421: Z_142_0_1 <= 1
 constraint2_1422: Z_142_0_2 <= 1
 constraint2_1423: Z_142_0_3 <= 1
 constraint2_4380: Z_438_0_0 <= 1
 constraint2_4381: Z_438_0_1 <= 1
 constraint2_4382: Z_438_0_2 <= 1
 constraint2_4383: Z_438_0_3 <= 1
 constraint2_310: Z_31_0_0 <= 1
 constraint2_311: Z_31_0_1 <= 1
 constraint2_312: Z_31_0_2 <= 1
 constraint2_313: Z_31_0_3 <= 1
 constraint2_6640: Z_664_0_0 <= 1
 constraint2_6641: Z_664_0_1 <= 1
 constraint2_6642: Z_664_0_2 <= 1
 constraint2_6643: Z_664_0_3 <= 1
 constraint2_3130: Z_313_0_0 <= 1
 constraint2_3131: Z_313_0_1 <= 1
 constraint2_3132: Z_313_0_2 <= 1
 constraint2_3133: Z_313_0_3 <= 1
 constraint2_1470: Z_147_0_0 <= 1
 constraint2_1471: Z_147_0_1 <= 1
 constraint2_1472: Z_147_0_2 <= 1
 constraint2_1473: Z_147_0_3 <= 1
Bounds
Binaries
 Z_189_0_0 Z_189_0_1 Z_189_0_2 Z_189_0_3 Z_358_0_0 Z_358_0_1 Z_358_0_2
 Z_358_0_3 Z_142_0_0 Z_142_0_1 Z_142_0_2 Z_142_0_3 Z_438_0_0 Z_438_0_1
 Z_438_0_2 Z_438_0_3 Z_31_0_0 Z_31_0_1 Z_31_0_2 Z_31_0_3 Z_664_0_0
 Z_664_0_1 Z_664_0_2 Z_664_0_3 Z_313_0_0 Z_313_0_1 Z_313_0_2 Z_313_0_3
 Z_147_0_0 Z_147_0_1 Z_147_0_2 Z_147_0_3
End
